<number of tasks>
20

<cycle time>
1000

<order strength>
0,232


<task times>
1 90
2 37
3 336
4 33
5 139
6 72
7 219
8 280
9 187
10 205
11 99
12 136
13 94
14 299
15 181
16 22
17 197
18 78
19 195
20 70

<precedence relations>
1,4
2,5
2,6
2,7
4,8
5,10
6,11
7,9
7,12
7,13
8,15
9,14
10,15
11,15
12,16
12,18
13,17
14,19
16,20

<end>
